n=214;
k_min=7;
k_max=7;
M=[| 160, 144, 139, 122, 143, 122, 166
 | 155, 151, 137, 124, 149, 118, 163
 | 153, 151, 138, 123, 149, 118, 163
 | 156, 148, 139, 123, 146, 119, 164
 | 154, 150, 139, 123, 147, 119, 164
 | 153, 148, 140, 124, 147, 119, 164
 | 155, 150, 139, 122, 147, 119, 164
 | 154, 150, 140, 122, 146, 120, 164
 | 158, 147, 137, 124, 146, 118, 166
 | 155, 148, 141, 121, 145, 120, 166
 | 152, 149, 141, 123, 147, 120, 164
 | 155, 147, 142, 121, 144, 121, 165
 | 152, 150, 140, 123, 147, 119, 164
 | 154, 149, 142, 122, 145, 121, 164
 | 154, 148, 143, 122, 144, 122, 164
 | 154, 149, 142, 122, 145, 121, 164
 | 155, 147, 143, 121, 143, 122, 165
 | 166, 143, 140, 122, 141, 123, 161
 | 161, 146, 139, 121, 142, 121, 166
 | 155, 148, 141, 122, 145, 120, 166
 | 156, 147, 142, 122, 144, 121, 164
 | 166, 146, 141, 121, 141, 122, 159
 | 157, 147, 143, 122, 143, 122, 165
 | 155, 148, 142, 121, 144, 121, 166
 | 156, 149, 140, 122, 145, 120, 164
 | 156, 148, 142, 122, 144, 121, 165
 | 156, 148, 140, 122, 145, 119, 165
 | 155, 149, 142, 122, 145, 120, 165
 | 154, 148, 143, 122, 144, 122, 164
 | 156, 148, 141, 122, 145, 120, 165
 | 155, 147, 143, 121, 143, 122, 165
 | 154, 149, 142, 121, 144, 121, 164
 | 155, 148, 142, 122, 144, 121, 164
 | 153, 149, 144, 122, 144, 122, 163
 | 156, 147, 143, 121, 143, 122, 165
 | 157, 148, 141, 122, 144, 120, 165
 | 160, 146, 139, 124, 144, 121, 163
 | 155, 147, 143, 121, 143, 121, 165
 | 166, 143, 142, 121, 139, 125, 160
 | 166, 143, 142, 121, 139, 125, 160
 | 156, 147, 143, 121, 143, 122, 166
 | 154, 148, 143, 121, 143, 122, 165
 | 157, 148, 141, 122, 144, 120, 165
 | 164, 143, 142, 121, 139, 127, 160
 | 156, 147, 143, 121, 143, 122, 164
 | 161, 145, 141, 123, 142, 122, 164
 | 158, 148, 142, 121, 143, 122, 163
 | 164, 143, 143, 122, 138, 127, 160
 | 163, 142, 145, 121, 137, 129, 159
 | 160, 146, 140, 123, 142, 121, 164
 | 162, 143, 144, 122, 138, 130, 159
 | 160, 145, 142, 121, 140, 122, 166
 | 159, 149, 143, 121, 141, 122, 162
 | 159, 148, 144, 121, 140, 123, 162
 | 159, 149, 143, 120, 141, 122, 162
 | 154, 149, 147, 120, 139, 125, 162
 | 155, 149, 141, 122, 145, 120, 164
 | 155, 148, 142, 122, 145, 120, 165
 | 155, 150, 138, 123, 148, 119, 164
 | 156, 149, 139, 122, 146, 119, 165
 | 159, 148, 141, 120, 143, 122, 163
 | 160, 146, 140, 124, 145, 122, 161
 | 166, 143, 142, 121, 139, 125, 161
 | 165, 143, 142, 122, 139, 126, 160
 | 165, 143, 143, 120, 139, 126, 161
 | 163, 144, 142, 120, 140, 124, 163
 | 162, 143, 145, 120, 137, 128, 160
 | 162, 143, 146, 120, 138, 128, 161
 | 162, 143, 145, 120, 138, 128, 161
 | 162, 142, 146, 121, 137, 130, 159
 | 155, 148, 136, 126, 149, 116, 166
 | 158, 146, 138, 124, 146, 119, 166
 | 153, 150, 139, 124, 149, 118, 164
 | 154, 150, 138, 124, 149, 118, 164
 | 153, 150, 139, 124, 148, 118, 165
 | 153, 150, 139, 123, 148, 118, 165
 | 155, 148, 138, 124, 148, 118, 166
 | 154, 149, 139, 123, 147, 118, 166
 | 155, 152, 137, 123, 148, 118, 163
 | 153, 148, 140, 125, 148, 119, 164
 | 153, 148, 140, 126, 148, 119, 164
 | 153, 151, 139, 123, 148, 118, 164
 | 155, 149, 138, 123, 147, 118, 166
 | 154, 149, 139, 123, 147, 118, 165
 | 151, 150, 136, 131, 154, 116, 159
 | 156, 149, 139, 123, 146, 119, 164
 | 153, 151, 139, 122, 147, 118, 166
 | 155, 149, 138, 123, 147, 118, 166
 | 154, 149, 140, 123, 147, 119, 165
 | 152, 149, 142, 124, 147, 120, 164
 | 160, 144, 142, 122, 142, 123, 163
 | 154, 149, 141, 122, 146, 120, 164
 | 155, 151, 141, 121, 145, 121, 163
 | 154, 151, 140, 122, 146, 119, 164
 | 153, 150, 142, 123, 146, 120, 164
 | 158, 147, 140, 123, 144, 120, 164
 | 160, 144, 143, 121, 141, 123, 164
 | 153, 147, 147, 121, 141, 125, 161
 | 154, 149, 143, 122, 144, 121, 163
 | 156, 148, 143, 121, 142, 121, 163
 | 155, 149, 144, 120, 141, 121, 166
 | 155, 146, 148, 122, 139, 126, 161
 | 156, 149, 148, 119, 138, 128, 160
 | 161, 142, 148, 125, 133, 138, 151
 | 166, 143, 147, 121, 133, 132, 154
 | 145, 145, 156, 128, 127, 155, 141
 | 145, 144, 149, 134, 133, 149, 142
 | 146, 142, 152, 131, 129, 155, 141
 | 150, 151, 166, 121, 127, 140, 143
 | 150, 151, 156, 122, 131, 141, 146
 | 144, 143, 153, 126, 127, 165, 140
 | 144, 142, 152, 126, 127, 166, 140
 | 146, 143, 156, 126, 126, 158, 141
 | 157, 148, 138, 123, 147, 119, 165
 | 158, 146, 140, 123, 145, 120, 164
 | 158, 147, 139, 123, 146, 119, 165
 | 157, 146, 139, 123, 146, 119, 165
 | 155, 148, 137, 126, 149, 118, 163
 | 155, 148, 138, 124, 148, 118, 164
 | 155, 149, 137, 124, 148, 118, 165
 | 158, 147, 140, 123, 145, 120, 164
 | 153, 149, 140, 124, 147, 119, 165
 | 155, 149, 139, 123, 147, 119, 165
 | 154, 149, 138, 124, 148, 117, 166
 | 157, 148, 141, 122, 145, 120, 165
 | 157, 146, 141, 123, 144, 121, 164
 | 157, 147, 142, 122, 144, 121, 164
 | 166, 147, 147, 120, 135, 125, 157
 | 162, 149, 146, 121, 136, 124, 157
 | 159, 150, 154, 122, 131, 131, 150
 | 155, 150, 158, 121, 128, 137, 148
 | 149, 145, 159, 126, 126, 150, 141
 | 157, 147, 138, 123, 147, 119, 166
 | 158, 145, 137, 125, 146, 119, 166
 | 156, 148, 139, 122, 147, 118, 166
 | 158, 146, 139, 122, 145, 120, 166
 | 155, 148, 141, 121, 145, 120, 166
 | 154, 148, 140, 123, 147, 119, 166
 | 151, 150, 140, 123, 148, 119, 166
 | 152, 149, 140, 123, 147, 118, 166
 | 155, 148, 138, 124, 147, 118, 166
 | 156, 148, 140, 121, 145, 119, 166
 | 154, 149, 141, 123, 146, 120, 164
 | 154, 148, 140, 123, 147, 118, 166
 | 156, 148, 143, 121, 142, 122, 163
 | 158, 146, 142, 122, 144, 122, 163
 | 158, 149, 140, 121, 144, 121, 163
 | 156, 149, 139, 122, 146, 119, 165
 | 157, 148, 140, 122, 145, 119, 166
 | 154, 146, 144, 123, 144, 123, 162
 | 156, 147, 140, 124, 146, 120, 164
 | 166, 143, 141, 121, 139, 125, 161
 | 158, 149, 141, 119, 142, 123, 163
 | 156, 149, 139, 123, 146, 119, 164
 | 158, 146, 143, 122, 143, 122, 163
 | 156, 149, 142, 121, 144, 121, 164
 | 158, 148, 141, 122, 144, 120, 164
 | 165, 143, 142, 121, 139, 126, 160
 | 159, 146, 140, 123, 143, 121, 164
 | 159, 145, 140, 124, 143, 121, 164
 | 159, 145, 141, 122, 142, 121, 166
 | 159, 148, 140, 119, 142, 122, 166
 | 164, 143, 141, 123, 141, 123, 161
 | 146, 145, 136, 143, 152, 123, 150
 | 157, 150, 151, 121, 133, 130, 155
 | 150, 145, 161, 120, 128, 143, 149
 | 147, 143, 166, 120, 127, 145, 147
 | 148, 151, 156, 123, 128, 145, 145
 | 149, 155, 151, 126, 132, 136, 148
 | 149, 153, 159, 122, 127, 141, 144
 | 148, 149, 166, 122, 124, 146, 142
 | 141, 141, 137, 166, 143, 127, 141
 | 141, 141, 137, 165, 144, 128, 141
 | 148, 148, 164, 123, 125, 148, 142
 | 157, 151, 147, 125, 135, 128, 153
 | 151, 152, 157, 121, 128, 142, 146
 | 162, 149, 147, 119, 137, 125, 157
 | 166, 148, 147, 117, 135, 126, 157
 | 160, 150, 147, 121, 139, 124, 156
 | 162, 150, 147, 120, 138, 124, 156
 | 150, 166, 140, 123, 145, 120, 152
 | 154, 155, 155, 123, 134, 129, 147
 | 151, 156, 159, 122, 129, 136, 144
 | 150, 151, 161, 122, 129, 139, 144
 | 146, 153, 144, 134, 145, 129, 146
 | 145, 148, 133, 136, 166, 116, 152
 | 148, 146, 135, 138, 158, 119, 154
 | 159, 147, 141, 121, 142, 120, 166
 | 155, 147, 146, 131, 138, 127, 152
 | 151, 151, 144, 132, 143, 125, 151
 | 156, 154, 145, 122, 142, 123, 155
 | 149, 162, 149, 127, 138, 126, 146
 | 149, 165, 148, 125, 136, 127, 146
 | 148, 165, 147, 127, 140, 125, 145
 | 148, 163, 147, 127, 140, 125, 146
 | 149, 166, 148, 125, 136, 126, 146
 | 149, 166, 149, 124, 134, 128, 146
 | 149, 162, 149, 126, 137, 126, 146
 | 149, 164, 149, 126, 136, 126, 146
 | 149, 161, 149, 128, 138, 126, 146
 | 149, 161, 147, 128, 140, 125, 146
 | 144, 148, 147, 136, 140, 134, 147
 | 149, 161, 147, 128, 140, 126, 147
 | 148, 164, 146, 128, 141, 125, 145
 | 149, 162, 149, 127, 139, 126, 146
 | 148, 166, 148, 126, 139, 125, 145
 | 148, 166, 148, 126, 139, 125, 145
 | 144, 154, 140, 139, 150, 125, 145
 | 150, 162, 151, 125, 135, 128, 145
 | 149, 166, 148, 126, 136, 126, 145
 | 148, 165, 147, 127, 140, 125, 145
 | 148, 162, 147, 127, 141, 126, 146
 | 148, 162, 147, 127, 140, 126, 147
 | 148, 162, 147, 127, 140, 127, 147 |];
 P=[7, 7, 7, 7, 7, 7, 7, 7, 7, 7, 7, 7, 7, 7, 7, 7, 7, 1, 7, 7, 7, 1, 7, 7, 7, 7, 7, 7, 7, 7, 7, 7, 7, 7, 7, 7, 7, 7, 1, 1, 7, 7, 7, 1, 7, 7, 7, 1, 1, 7, 1, 7, 7, 7, 7, 7, 7, 7, 7, 7, 7, 7, 1, 1, 1, 1, 1, 1, 1, 1, 7, 7, 7, 7, 7, 7, 7, 7, 7, 7, 7, 7, 7, 7, 7, 7, 7, 7, 7, 7, 7, 7, 7, 7, 7, 7, 7, 7, 7, 7, 7, 7, 7, 1, 1, 6, 6, 6, 3, 3, 6, 6, 6, 7, 7, 7, 7, 7, 7, 7, 7, 7, 7, 7, 7, 7, 7, 1, 1, 1, 3, 6, 7, 7, 7, 7, 7, 7, 7, 7, 7, 7, 7, 7, 7, 7, 7, 7, 7, 7, 7, 1, 7, 7, 7, 7, 7, 1, 7, 7, 7, 7, 1, 5, 1, 3, 3, 3, 3, 3, 3, 4, 4, 3, 1, 3, 1, 1, 1, 1, 2, 2, 3, 3, 2, 5, 5, 7, 1, 1, 2, 2, 2, 2, 2, 2, 2, 2, 2, 2, 2, 3, 2, 2, 2, 2, 2, 2, 2, 2, 2, 2, 2, 2 ];